% doomed 10x10 instance from Monika (MON1)
n_jobs = 10;
n_machines = 10;
job_task_machine = array2d(jobs, tasks, [
	0, 1, 2, 3, 4, 5, 6, 7, 8, 9, 
	0, 3, 4, 8, 9, 6, 7, 5, 2, 1, 
	0, 7, 3, 2, 6, 4, 1, 5, 8, 9, 
	0, 1, 3, 8, 5, 2, 4, 7, 6, 9, 
	0, 6, 1, 3, 5, 2, 9, 7, 8, 4, 
	4, 0, 6, 8, 2, 3, 9, 7, 5, 1, 
	4, 3, 0, 9, 2, 1, 8, 7, 6, 5, 
	4, 6, 9, 3, 8, 2, 7, 5, 0, 1, 
	2, 6, 8, 7, 4, 9, 3, 1, 5, 0, 
	2, 9, 5, 8, 6, 3, 7, 4, 1, 0
]);
job_task_duration = array2d(jobs, tasks, [
	32, 14, 15, 37, 18, 43, 19, 27, 28, 31, 
	8, 12, 49, 24, 52, 19, 23, 19, 17, 32, 
	25, 19, 27, 45, 21, 15, 13, 16, 43, 19, 
	24, 18, 41, 29, 14, 17, 23, 15, 18, 23, 
	27, 29, 39, 21, 15, 15, 25, 26, 44, 20, 
	17, 15, 51, 17, 46, 16, 33, 25, 30, 25, 
	15, 31, 25, 12, 13, 51, 19, 21, 12, 26, 
	8, 29, 25, 15, 17, 22, 32, 20, 11, 28, 
	41, 10, 32, 5, 21, 59, 26, 10, 16, 29, 
	20, 7, 44, 22, 33, 25, 29, 12, 14, 0
]);

